(declare-const delta_z Int)
(declare-const delta_x Int)
(declare-const delta___cost Int)
(assert (exists
         ((|x'?1| Int) (|S1,1?2| Real) (|z'?3| Int) (|S1,0?4| Real)
            (|__cost'?5| Int) (KSUM1?6 Int) (|K1,0?7| Int) (K?8 Int)
            (|z'?9| Int) (|__cost'?10| Int) (z?11 Int) (x?12 Int) (y?13 Int)
            (__cost?14 Int))
         (and (<= (- y?13) 0) (< (+ (- x?12) y?13) 0) (<= (- __cost?14) 0)
                (<= (+ (- __cost?14) -1) 0) (<= (- K?8) 0)
                (<= (- |K1,0?7|) 0) (= (+ |K1,0?7| (- K?8)) 0)
                (<= (+ KSUM1?6 (- K?8)) 0)
                (= (+ (- |S1,0?4|) |__cost'?5| (- |K1,0?7|)) 0)
                (= (+ (- |S1,1?2|) |z'?3| |K1,0?7|) 0)
                (= (+ (- KSUM1?6) |K1,0?7|) 0)
                (= (+ |S1,0?4| (- __cost?14) -1) 0)
                (= (+ |S1,1?2| (- y?13)) 0)
                (or (and (= K?8 0) (= (+ (- |z'?3|) y?13) 0)
                           (= (+ (- |__cost'?5|) __cost?14 1) 0))
                      (and (<= (+ (- K?8) 1) 0) (<= (- __cost?14) 0)
                             (<= (+ (- y?13) 1) 0)
                             (<= (+ (- |__cost'?5|) 2) 0) (<= (- |z'?3|) 0)))
                (= (+ |__cost'?5| (- K?8) (- __cost?14) -1) 0)
                (= (+ |z'?3| K?8 (- y?13)) 0) (<= (- K?8) 0)
                (<= (- |z'?3|) 0) (< (- |__cost'?5|) 0) (<= |z'?3| 0)
                (= (+ |x'?1| (- x?12) y?13 1) 0) (= (+ |z'?9| (- |z'?3|)) 0)
                (= (+ |__cost'?10| (- |__cost'?5|)) 0)
                (= delta___cost (+ |__cost'?10| (- __cost?14)))
                (= delta_z (+ |z'?9| (- z?11)))
                (= delta_x (+ |x'?1| (- x?12))))))
(check-sat)
